
Gurobi 6.5.2 (win64) logging started 07/22/16 21:45:49


Gurobi 6.5.2 (win64) logging started 07/22/16 21:45:49

Optimize a model with 3696 rows, 769 columns and 9317 nonzeros
Coefficient statistics:
  Matrix range    [6e-08, 1e+03]
  Objective range [1e+00, 1e+00]
  Bounds range    [1e+00, 1e+00]
  RHS range       [6e-06, 2e+03]
Presolve removed 3433 rows and 503 columns
Presolve time: 0.00s
Presolved: 263 rows, 266 columns, 1113 nonzeros
Variable types: 266 continuous, 0 integer (0 binary)

Root relaxation: objective 1.931550e+02, 288 iterations, 0.00 seconds

    Nodes    |    Current Node    |     Objective Bounds      |     Work
 Expl Unexpl |  Obj  Depth IntInf | Incumbent    BestBd   Gap | It/Node Time

*    0     0               0     193.1549898  193.15499  0.00%     -    0s

Explored 0 nodes (288 simplex iterations) in 0.02 seconds
Thread count was 8 (of 8 available processors)

Optimal solution found (tolerance 1.00e-04)
Best objective 1.931549897939e+02, best bound 1.931549897939e+02, gap 0.0%

Wrote requested result file 'H1\instance21\\Results21EC_Sol3.lp'

